(set-option :produce-models true)
(set-logic QF_LRA)
(set-info :notes | Strip-packing problem.|)
(declare-fun x0 () Real)
(declare-fun y0 () Real)
(declare-fun x1 () Real)
(declare-fun y1 () Real)
(declare-fun x2 () Real)
(declare-fun y2 () Real)
(declare-fun x3 () Real)
(declare-fun y3 () Real)
(declare-fun x4 () Real)
(declare-fun y4 () Real)
(declare-fun x5 () Real)
(declare-fun y5 () Real)
(declare-fun x6 () Real)
(declare-fun y6 () Real)
(declare-fun x7 () Real)
(declare-fun y7 () Real)
(declare-fun x8 () Real)
(declare-fun y8 () Real)
(declare-fun z () Real)
(declare-fun c () Real)
(assert (and (= c z) (and (>= x0 0) 
(and (>= y0 0) 
(and (>= x1 0) 
(and (>= y1 0) 
(and (>= x2 0) 
(and (>= y2 0) 
(and (>= x3 0) 
(and (>= y3 0) 
(and (>= x4 0) 
(and (>= y4 0) 
(and (>= x5 0) 
(and (>= y5 0) 
(and (>= x6 0) 
(and (>= y6 0) 
(and (>= x7 0) 
(and (>= y7 0) 
(and (>= x8 0) 
(and (>= y8 0) 
(and (>= z 0) 
(and (>= c 0) 
(and (<= (+ x0 0.6830056092) z) 
(and (<= 0.9162159878 y0) 
(and (<= y0 1.0) 
(and (<= x0 (- 3.0780494498 0.6830056092)) 
(and (>= x0 0) 
(and (<= (+ x1 0.1387075136) z) 
(and (<= 0.6522831425 y1) 
(and (<= y1 1.0) 
(and (<= x1 (- 3.0780494498 0.1387075136)) 
(and (>= x1 0) 
(and (<= (+ x2 0.5491548659) z) 
(and (<= 0.5633804317 y2) 
(and (<= y2 1.0) 
(and (<= x2 (- 3.0780494498 0.5491548659)) 
(and (>= x2 0) 
(and (<= (+ x3 0.748815907) z) 
(and (<= 0.5034647828 y3) 
(and (<= y3 1.0) 
(and (<= x3 (- 3.0780494498 0.748815907)) 
(and (>= x3 0) 
(and (<= (+ x4 0.3265446436) z) 
(and (<= 0.3291424593 y4) 
(and (<= y4 1.0) 
(and (<= x4 (- 3.0780494498 0.3265446436)) 
(and (>= x4 0) 
(and (<= (+ x5 0.527334512) z) 
(and (<= 0.327268886 y5) 
(and (<= y5 1.0) 
(and (<= x5 (- 3.0780494498 0.527334512)) 
(and (>= x5 0) 
(and (<= (+ x6 0.1175187465) z) 
(and (<= 0.3079775585 y6) 
(and (<= y6 1.0) 
(and (<= x6 (- 3.0780494498 0.1175187465)) 
(and (>= x6 0) 
(and (<= (+ x7 0.9583655541) z) 
(and (<= 0.232372742 y7) 
(and (<= y7 1.0) 
(and (<= x7 (- 3.0780494498 0.9583655541)) 
(and (>= x7 0) 
(and (<= (+ x8 0.6543575741) z) 
(and (<= 0.1026764684 y8) 
(and (<= y8 1.0) 
(and (<= x8 (- 3.0780494498 0.6543575741)) 
(and (>= x8 0) 
(and (<= c 3.0780494498) 
(and (or (<= (+ x0 0.6830056092) x1) (or (<= (+ x1 0.1387075136) x0) (or (>= (- y0 0.9162159878) y1) (or (>= (- y1 0.6522831425) y0))))) 
(and (or (<= (+ x0 0.6830056092) x2) (or (<= (+ x2 0.5491548659) x0) (or (>= (- y0 0.9162159878) y2) (or (>= (- y2 0.5633804317) y0))))) 
(and (or (<= (+ x0 0.6830056092) x3) (or (<= (+ x3 0.748815907) x0) (or (>= (- y0 0.9162159878) y3) (or (>= (- y3 0.5034647828) y0))))) 
(and (or (<= (+ x0 0.6830056092) x4) (or (<= (+ x4 0.3265446436) x0) (or (>= (- y0 0.9162159878) y4) (or (>= (- y4 0.3291424593) y0))))) 
(and (or (<= (+ x0 0.6830056092) x5) (or (<= (+ x5 0.527334512) x0) (or (>= (- y0 0.9162159878) y5) (or (>= (- y5 0.327268886) y0))))) 
(and (or (<= (+ x0 0.6830056092) x6) (or (<= (+ x6 0.1175187465) x0) (or (>= (- y0 0.9162159878) y6) (or (>= (- y6 0.3079775585) y0))))) 
(and (or (<= (+ x0 0.6830056092) x7) (or (<= (+ x7 0.9583655541) x0) (or (>= (- y0 0.9162159878) y7) (or (>= (- y7 0.232372742) y0))))) 
(and (or (<= (+ x0 0.6830056092) x8) (or (<= (+ x8 0.6543575741) x0) (or (>= (- y0 0.9162159878) y8) (or (>= (- y8 0.1026764684) y0))))) 
(and (or (<= (+ x1 0.1387075136) x2) (or (<= (+ x2 0.5491548659) x1) (or (>= (- y1 0.6522831425) y2) (or (>= (- y2 0.5633804317) y1))))) 
(and (or (<= (+ x1 0.1387075136) x3) (or (<= (+ x3 0.748815907) x1) (or (>= (- y1 0.6522831425) y3) (or (>= (- y3 0.5034647828) y1))))) 
(and (or (<= (+ x1 0.1387075136) x4) (or (<= (+ x4 0.3265446436) x1) (or (>= (- y1 0.6522831425) y4) (or (>= (- y4 0.3291424593) y1))))) 
(and (or (<= (+ x1 0.1387075136) x5) (or (<= (+ x5 0.527334512) x1) (or (>= (- y1 0.6522831425) y5) (or (>= (- y5 0.327268886) y1))))) 
(and (or (<= (+ x1 0.1387075136) x6) (or (<= (+ x6 0.1175187465) x1) (or (>= (- y1 0.6522831425) y6) (or (>= (- y6 0.3079775585) y1))))) 
(and (or (<= (+ x1 0.1387075136) x7) (or (<= (+ x7 0.9583655541) x1) (or (>= (- y1 0.6522831425) y7) (or (>= (- y7 0.232372742) y1))))) 
(and (or (<= (+ x1 0.1387075136) x8) (or (<= (+ x8 0.6543575741) x1) (or (>= (- y1 0.6522831425) y8) (or (>= (- y8 0.1026764684) y1))))) 
(and (or (<= (+ x2 0.5491548659) x3) (or (<= (+ x3 0.748815907) x2) (or (>= (- y2 0.5633804317) y3) (or (>= (- y3 0.5034647828) y2))))) 
(and (or (<= (+ x2 0.5491548659) x4) (or (<= (+ x4 0.3265446436) x2) (or (>= (- y2 0.5633804317) y4) (or (>= (- y4 0.3291424593) y2))))) 
(and (or (<= (+ x2 0.5491548659) x5) (or (<= (+ x5 0.527334512) x2) (or (>= (- y2 0.5633804317) y5) (or (>= (- y5 0.327268886) y2))))) 
(and (or (<= (+ x2 0.5491548659) x6) (or (<= (+ x6 0.1175187465) x2) (or (>= (- y2 0.5633804317) y6) (or (>= (- y6 0.3079775585) y2))))) 
(and (or (<= (+ x2 0.5491548659) x7) (or (<= (+ x7 0.9583655541) x2) (or (>= (- y2 0.5633804317) y7) (or (>= (- y7 0.232372742) y2))))) 
(and (or (<= (+ x2 0.5491548659) x8) (or (<= (+ x8 0.6543575741) x2) (or (>= (- y2 0.5633804317) y8) (or (>= (- y8 0.1026764684) y2))))) 
(and (or (<= (+ x3 0.748815907) x4) (or (<= (+ x4 0.3265446436) x3) (or (>= (- y3 0.5034647828) y4) (or (>= (- y4 0.3291424593) y3))))) 
(and (or (<= (+ x3 0.748815907) x5) (or (<= (+ x5 0.527334512) x3) (or (>= (- y3 0.5034647828) y5) (or (>= (- y5 0.327268886) y3))))) 
(and (or (<= (+ x3 0.748815907) x6) (or (<= (+ x6 0.1175187465) x3) (or (>= (- y3 0.5034647828) y6) (or (>= (- y6 0.3079775585) y3))))) 
(and (or (<= (+ x3 0.748815907) x7) (or (<= (+ x7 0.9583655541) x3) (or (>= (- y3 0.5034647828) y7) (or (>= (- y7 0.232372742) y3))))) 
(and (or (<= (+ x3 0.748815907) x8) (or (<= (+ x8 0.6543575741) x3) (or (>= (- y3 0.5034647828) y8) (or (>= (- y8 0.1026764684) y3))))) 
(and (or (<= (+ x4 0.3265446436) x5) (or (<= (+ x5 0.527334512) x4) (or (>= (- y4 0.3291424593) y5) (or (>= (- y5 0.327268886) y4))))) 
(and (or (<= (+ x4 0.3265446436) x6) (or (<= (+ x6 0.1175187465) x4) (or (>= (- y4 0.3291424593) y6) (or (>= (- y6 0.3079775585) y4))))) 
(and (or (<= (+ x4 0.3265446436) x7) (or (<= (+ x7 0.9583655541) x4) (or (>= (- y4 0.3291424593) y7) (or (>= (- y7 0.232372742) y4))))) 
(and (or (<= (+ x4 0.3265446436) x8) (or (<= (+ x8 0.6543575741) x4) (or (>= (- y4 0.3291424593) y8) (or (>= (- y8 0.1026764684) y4))))) 
(and (or (<= (+ x5 0.527334512) x6) (or (<= (+ x6 0.1175187465) x5) (or (>= (- y5 0.327268886) y6) (or (>= (- y6 0.3079775585) y5))))) 
(and (or (<= (+ x5 0.527334512) x7) (or (<= (+ x7 0.9583655541) x5) (or (>= (- y5 0.327268886) y7) (or (>= (- y7 0.232372742) y5))))) 
(and (or (<= (+ x5 0.527334512) x8) (or (<= (+ x8 0.6543575741) x5) (or (>= (- y5 0.327268886) y8) (or (>= (- y8 0.1026764684) y5))))) 
(and (or (<= (+ x6 0.1175187465) x7) (or (<= (+ x7 0.9583655541) x6) (or (>= (- y6 0.3079775585) y7) (or (>= (- y7 0.232372742) y6))))) 
(and (or (<= (+ x6 0.1175187465) x8) (or (<= (+ x8 0.6543575741) x6) (or (>= (- y6 0.3079775585) y8) (or (>= (- y8 0.1026764684) y6))))) 
(and (or (<= (+ x7 0.9583655541) x8) (or (<= (+ x8 0.6543575741) x7) (or (>= (- y7 0.232372742) y8) (or (>= (- y8 0.1026764684) y7))))) ))))))))))))))))))))))))))))))))))))))))))))))))))))))))))))))))))))))))))))))))))))))))))))))))))))))))
(minimize c)
(check-sat)
(get-objectives)
(exit)
